# Objective value = 3.0566783466976455e+02
x[0] 1.0000001912758696e+00
x[1] 1.0000001912791283e+00
x[2] 1
x[3] 1.0000001044160391e+00
x[4] 0
x[5] 1
x[6] 1
x[7] 0
x[8] -1.1312677400223644e-07
x[9] 1
x[10] 0
x[11] 0
x[12] 2.2458391341603078e-08
x[13] 1
x[14] 0
x[15] 0
x[16] 0
x[17] 0
x[18] 0
x[19] 1
x[20] -1.0446027610180597e-07
x[21] -1.9791352823261832e-07
x[22] 1
x[23] 0
x[24] 1
x[25] -1.9130775982519295e-07
x[26] 1
x[27] 1
x[28] 0
x[29] 0
x[30] -1.9458019487190835e-07
x[31] 1
x[32] 1
x[33] 0
x[34] -1.1646010726911795e-07
x[35] 0
x[36] 1
x[37] 1
x[38] -2.1557142904640884e-08
x[39] 0
x[40] -3.4381589109067079e-07
x[41] 1
x[42] -1.9130776007791894e-07
x[43] 1
x[44] 0
x[45] 1
x[46] 1
x[47] 1
x[48] 0
x[49] 0
x[50] 0
x[51] 1
x[52] 1.0000000227865293e+00
x[53] 0
x[54] 0
x[55] 0
x[56] -2.0099514306914398e-07
x[57] 1
x[58] 9.9999995347019432e-01
x[59] 0
x[60] -6.2710809912436180e-08
x[61] 1
x[62] 1
x[63] 1
x[64] 1.0000001966545369e+00
x[65] 1
x[66] 0
x[67] 0
x[68] -3.2912620850922281e-08
x[69] 0
x[70] 1.0000000262749624e+00
x[71] -1.0112694295890346e-07
x[72] 1.0000000989009419e+00
x[73] -6.5934694593039467e-08
x[74] 0
x[75] 0
x[76] 1
x[77] -1.3302594426001235e-07
x[78] 0
x[79] 0
x[80] 1
x[81] 0
x[82] 0
x[83] 0
x[84] 0
x[85] 0
x[86] 1.0000001229307691e+00
x[87] 1.0000001966615026e+00
x[88] 1
x[89] -7.1857142453743868e-08
x[90] 1
x[91] 0
x[92] 1
x[93] 0
x[94] 1
x[95] 2.2420035520177815e-08
x[96] 0
x[97] 1.0000000987973579e+00
x[98] 1
x[99] 0
x[100] -1.1965539658685564e-07
x[101] 1
x[102] 1
x[103] 1
x[104] 1
x[105] 1.0000001978712705e+00
x[106] 1.0000001251073876e+00
x[107] 0
x[108] 1
x[109] -1.9791352838289147e-07
x[110] -1.4178734151015796e-07
x[111] 1
x[112] 0
x[113] 0
x[114] 0
x[115] 1.4708324799062771e-07
x[116] 1
x[117] 0
x[118] -2.3794750298506078e-07
x[119] -1.8797442674458561e-07
x[120] 1
x[121] 0
x[122] 1
x[123] 1
x[124] 0
x[125] 1.0000001391686406e+00
x[126] 1
x[127] 0
x[128] 1
x[129] 1
x[130] 0
x[131] -1.2177702467831253e-07
x[132] 1.0000001978498776e+00
x[133] 1.0000003437803915e+00
x[134] 1
x[135] 0
x[136] 0
x[137] 1
x[138] 1
x[139] 1
x[140] 0
x[141] -1.9130776007791894e-07
x[142] 1
x[143] 0
x[144] 9.9999998684657354e-01
x[145] -1.2177405414997089e-07
x[146] 1
x[147] 0
x[148] 0
x[149] 0
x[150] 1
x[151] 1.0000000119712711e+00
x[152] 0
x[153] -1.7752090677712379e-07
x[154] 0
x[155] 0
x[156] 0
x[157] 1
x[158] -4.3381705117084834e-08
x[159] 1
x[160] 1
x[161] 9.9999995500432082e-01
x[162] 0
x[163] 1
x[164] 0
x[165] 1
x[166] 0
x[167] 1.0000000748333122e+00
x[168] 0
x[169] 0
x[170] 1
x[171] 1
x[172] 1
x[173] 1
x[174] -5.7745237757895744e-08
x[175] -1.0446027622447553e-07
x[176] 1.0000000983771429e+00
x[177] 0
x[178] 0
x[179] 0
x[180] 1
x[181] 1.0000001216971774e+00
x[182] -1.0446027598476348e-07
x[183] 0
x[184] 1
x[185] 0
x[186] -1.35913303572041e-07
x[187] 1
x[188] 0
x[189] 1.0000001978636226e+00
x[190] 1
x[191] 1
x[192] 0
x[193] 0
x[194] 0
x[195] 1.0000003944746634e+00
x[196] 1
x[197] 1
x[198] 0
x[199] 0
x[200] 1
x[201] 1.0000003559854003e+00
x[202] 1
x[203] 1
x[204] 1
x[205] 1
x[206] 1
x[207] -1.0446027629474022e-07
x[208] 1
x[209] 0
x[210] 1.0000001966626670e+00
x[211] -9.8847315443961747e-08
x[212] 0
x[213] 1
x[214] 0
x[215] 1.0000000660138462e+00
x[216] 0
x[217] 0
x[218] 0
x[219] 1
x[220] 1
x[221] 1
x[222] 0
x[223] 1
x[224] -1.1915257138247341e-07
x[225] -1.0034512401950049e-07
x[226] 1
x[227] 1.0000001966720309e+00
x[228] -1.1248919795647794e-08
x[229] 1.0000001164300847e+00
x[230] 1
x[231] 2.2426608763566172e-08
x[232] 1
x[233] 1
x[234] 0
x[235] 1.0000001978795818e+00
x[236] 1.0000004989625302e+00
x[237] 1
x[238] -4.3381705117084834e-08
x[239] 1.0000001164141301e+00
x[240] 0
x[241] 0
x[242] 0
x[243] 1
x[244] 1.0000001978597652e+00
x[245] -7.6458924180703586e-08
x[246] 1
x[247] 0
x[248] 1
x[249] 1.0000002259486469e+00
x[250] 0
x[251] -2.2820260792144609e-08
x[252] 9.9999998083549380e-01
x[253] 0
x[254] -1.9670182312809245e-07
x[255] 1
x[256] 1
x[257] 0
x[258] 1
x[259] -9.8847315508436889e-08
x[260] -4.3381705117084834e-08
x[261] 1
x[262] 0
x[263] 1.0000001036269057e+00
x[264] 1.0000001044251481e+00
x[265] 1
x[266] 1
x[267] 1
x[268] -3.0116209910441737e-07
x[269] 1.0000000989237223e+00
x[270] 0
x[271] 0
x[272] 0
x[273] 0
x[274] 1
x[275] -3.9461535172868878e-07
x[276] 1
x[277] 1.00000009881806
x[278] 0
x[279] 1.0000003824553276e+00
x[280] 0
x[281] 1
x[282] 0
x[283] 1
x[284] 1
x[285] 4.4947171781773410e-08
x[286] 0
x[287] 1
x[288] 0
x[289] 1
x[290] 1
x[291] 0
x[292] 0
x[293] 0
x[294] 1
x[295] 0
x[296] -6.1078571089723255e-08
x[297] 0
x[298] 1
x[299] -1.9458019506420463e-07
x[300] 1.0000001044315439e+00
x[301] 1.0000000224433372e+00
x[302] 1.0000000262595024e+00
x[303] 1
x[304] 0
x[305] 1
x[306] -1.1646010733556977e-07
x[307] 1
x[308] 0
x[309] 0
x[310] 0
x[311] 0
x[312] 0
x[313] 1
x[314] 1
x[315] 1
x[316] 0
x[317] 1.0000001329977151e+00
x[318] 9.9999985288593207e-01
x[319] 0
x[320] 0
x[321] 1.0000001163923544e+00
x[322] 1
x[323] 0
x[324] 1.0000001978824427e+00
x[325] 0
x[326] 1
x[327] 1
x[328] 1
x[329] 1
x[330] 1.0000000502034991e+00
x[331] 1
x[332] 1
x[333] -1.1646010733556977e-07
x[334] 0
x[335] 0
x[336] 1.0000002109739612e+00
x[337] 1
x[338] 1.0000000338601962e+00
x[339] 1.0000003942140110e+00
x[340] 1
x[341] 1
x[342] 1
x[343] 1
x[344] 1
x[345] 0
x[346] 0
x[347] 1
x[348] 1
x[349] 1
x[350] 1
x[351] 0
x[352] 0
x[353] 0
x[354] 1.0000001977655455e+00
x[355] 2.2462388145036996e-08
x[356] 1
x[357] 1
x[358] -2.0432847634569189e-07
x[359] -2.2820260792144609e-08
x[360] 1
x[361] 1
x[362] -1.9332933368159991e-07
x[363] 1
x[364] 1.0000001044120559e+00
x[365] 0
x[366] -1.5599946384494652e-07
x[367] 0
x[368] -6.1078571089723255e-08
x[369] 1
x[370] 1
x[371] 1.0000001044268714e+00
x[372] 1
x[373] 0
x[374] 0
x[375] 1.0000003945855014e+00
x[376] -2.9177412597662058e-07
x[377] 1
x[378] -1.2177702467831253e-07
x[379] 1
x[380] 0
x[381] 1
x[382] 0
x[383] 0
x[384] -1.9333869755152887e-07
x[385] -1.1410130618116909e-08
x[386] 1
x[387] 0
x[388] 1.0000001593037551e+00
x[389] 1.0000001329983721e+00
x[390] 0
x[391] 0
x[392] 1.0000000224662771e+00
x[393] 1
x[394] 1
x[395] 0
x[396] -1.9458019482751347e-07
x[397] 0
x[398] 0
x[399] 0
x[400] 0
x[401] 1
x[402] 0
x[403] 0
x[404] 1.0000001592862722e+00
x[405] 0
x[406] 1
x[407] 0
x[408] 1
x[409] 1.0000002042958480e+00
x[410] 1
x[411] 0
x[412] 0
x[413] 1
x[414] 1.0000001216061853e+00
x[415] 0
x[416] 0
x[417] 1
x[418] 0
x[419] 0
x[420] 1
x[421] 0
x[422] 0
x[423] 0
x[424] 1.0000001806029284e+00
x[425] 1
x[426] 0
x[427] 0
x[428] 1
x[429] 0
x[430] 0
x[431] -6.1078571089723255e-08
x[432] 1
x[433] 0
x[434] 1.0000001593022805e+00
x[435] 0
x[436] 1
x[437] 1.0000001155559339e+00
x[438] 0
x[439] 0
x[440] 1.00000018088574
x[441] 0
x[442] 1
x[443] 1
x[444] 1
x[445] 0
x[446] 1
x[447] 0
x[448] 1
x[449] 0
x[450] 1
x[451] 1
x[452] 1.0000001044031823e+00
x[453] -1.2298872986704623e-07
x[454] 1.0000000433430636e+00
x[455] -5.0880984758805425e-08
x[456] -1.9458019506420463e-07
x[457] 1
x[458] 0
x[459] -1.9791352816084681e-07
x[460] 0
x[461] 0
x[462] 0
x[463] -1.0446027620680809e-07
x[464] 0
x[465] 1
x[466] 0
x[467] 1
x[468] 1
x[469] 0
x[470] 1
x[471] 0
x[472] 0
x[473] 1
x[474] 0
x[475] 0
x[476] 1
x[477] 1
x[478] -3.3907970587287182e-08
x[479] 1
x[480] 1
x[481] 1.0000001912559671e+00
x[482] 1.0000000113772982e+00
x[483] 1
x[484] -1.0367845743524653e-07
x[485] 0
x[486] 0
x[487] 1
x[488] 0
x[489] -1.6909075246497071e-07
x[490] 1
x[491] 1
x[492] 1.0000000330402865e+00
x[493] 1.0000000608528794e+00
x[494] 1
x[495] 1.0000001217423191e+00
x[496] 0
x[497] 1
x[498] 1
x[499] -3.9246263770191597e-07
x[500] 0
x[501] -9.8956764560398369e-08
x[502] 0
x[503] 1
x[504] 0
x[505] 0
x[506] 0
x[507] 1
x[508] 1
x[509] 1
x[510] 1.0000001978833737e+00
x[511] 1
x[512] 1
x[513] -1.9130775982977850e-07
x[514] 0
x[515] 1
x[516] 1
x[517] 9.9999997750216041e-01
x[518] -2.2820260792144609e-08
x[519] 0
x[520] 0
x[521] 1
x[522] 0
x[523] 0
x[524] 1
x[525] 0
x[526] 1.0000003236170816e+00
x[527] 0
x[528] 0
x[529] 0
x[530] 1.0000000660075741e+00
x[531] 0
x[532] 1
x[533] 0
x[534] 0
x[535] 1
x[536] 1.0000000227009176e+00
x[537] -1.9630553974109028e-07
x[538] 1
x[539] 1
x[540] 1
x[541] 0
x[542] -1.9791352820524168e-07
x[543] 0
x[544] 1
x[545] 1
x[546] 0
x[547] 1
x[548] 0
x[549] 1.0000001978820170e+00
x[550] 0
x[551] 1
x[552] 1
x[553] 0
x[554] 0
x[555] 0
x[556] 0
x[557] 1
x[558] 1.0000001164277101e+00
x[559] -1.9670182312809245e-07
x[560] 0
x[561] 2.2416656830702775e-08
x[562] -1.0108270578197179e-07
x[563] 0
x[564] 0
x[565] 0
x[566] 1
x[567] 0
x[568] 0
x[569] 1
x[570] -1.9458019497539619e-07
x[571] 1
x[572] 1.0000001690287335e+00
x[573] 0
x[574] 1
x[575] 0
x[576] 0
x[577] -2.1740045546938499e-07
x[578] 1
x[579] 0
x[580] -1.5219045074001921e-07
x[581] 0
x[582] -2.2041136841560335e-07
x[583] 1.0000000988029867e+00
x[584] 1
x[585] 1
x[586] 0
x[587] 1
x[588] -1.1646010726911795e-07
x[589] 1
x[590] 0
x[591] -1.8091920139795548e-07
x[592] 0
x[593] 0
x[594] 1
x[595] 1
x[596] 1
x[597] 0
x[598] 1
x[599] 0
x[600] 0
x[601] -1.0446027610180597e-07
x[602] 0
x[603] 1
x[604] 1
x[605] 0
x[606] 0
x[607] -1.9670182326544692e-07
x[608] 1
x[609] 1
x[610] 1
x[611] 0
x[612] 1.0000001217436096e+00
x[613] 0
x[614] 1
x[615] 1
x[616] -1.1646010733556977e-07
x[617] 0
x[618] 1
x[619] 1.0000000796229067e+00
x[620] 1
x[621] -2.1541136782391390e-07
x[622] 0
x[623] 1
x[624] 1
x[625] 0
x[626] 1
x[627] 1
x[628] 0
x[629] -1.0446027623876773e-07
x[630] 1
x[631] 0
x[632] 0
x[633] 1
x[634] 0
x[635] 1.0000000978220909e+00
x[636] 0
x[637] 1
x[638] 0
x[639] 0
x[640] 0
x[641] -2.5157434414265555e-07
x[642] 1
x[643] 0
x[644] 0
x[645] 9.9999998083549380e-01
x[646] 0
x[647] 1
x[648] -1.5933279717827986e-07
x[649] -2.9177412602490145e-07
x[650] 0
x[651] 0
x[652] 1
x[653] 0
x[654] 1
x[655] 0
x[656] 1
x[657] 1
x[658] 0
x[659] 1
x[660] 1
x[661] 0
x[662] 1
x[663] 1
x[664] 1
x[665] 1
x[666] 1
x[667] -2.2820260864136093e-08
x[668] 0
x[669] 1.0000001978775019e+00
x[670] 1
x[671] 1.0000000658755264e+00
x[672] 1
x[673] 0
x[674] 1
x[675] 1
x[676] -2.6306852918267509e-08
x[677] 1
x[678] 0
x[679] 0
x[680] 1
x[681] 1.0000003825827462e+00
x[682] 0
x[683] -1.9130776005460746e-07
x[684] 0
x[685] 1
x[686] 1
x[687] 0
x[688] 0
x[689] 1
x[690] 0
x[691] -1.0304660924553843e-07
x[692] 1
x[693] 0
x[694] 1
x[695] 0
x[696] 1.0000001043149260e+00
x[697] 0
x[698] 1
x[699] 1
x[700] 1
x[701] 0
x[702] 0
x[703] 0
x[704] 1
x[705] -9.8405636084208936e-08
x[706] 1
x[707] 0
x[708] -6.2710809932053542e-08
x[709] 0
x[710] 0
x[711] 0
x[712] 1
x[713] -1.9716437882623268e-07
x[714] 0
x[715] 1
x[716] 0
x[717] 1
x[718] -1.5933279717827986e-07
x[719] 1.0000000433048266e+00
x[720] 1
x[721] 0
x[722] 1
x[723] 1.0000003559451374e+00
x[724] 1
x[725] 1
x[726] -1.9791352823261832e-07
x[727] 1
x[728] 9.9999995500432082e-01
x[729] 0
x[730] -3.9461535166298486e-07
x[731] 1
x[732] -1.2966503873094419e-07
x[733] 1
x[734] 0
x[735] 0
x[736] 0
x[737] -3.8261552000844611e-07
x[738] 0
x[739] 1
x[740] 1
x[741] 0
x[742] 4.4956950509548228e-08
x[743] 1.0000000988831257e+00
x[744] 0
x[745] 1
x[746] 0
x[747] 1.0000001978739990e+00
x[748] 1.0000002950597793e+00
x[749] 0
x[750] 1.0000001966556773e+00
x[751] 1
x[752] -1.9791352823261832e-07
x[753] -1.2177702467831253e-07
x[754] 1
x[755] 1.0000000112173804e+00
x[756] 1.0000001911871295e+00
x[757] 1
x[758] 1.0000001029441798e+00
x[759] 1
x[760] 0
x[761] 0.999999983434163
x[762] 0
x[763] 1
x[764] -7.3378824350101013e-08
x[765] 2.2213509317763856e-08
x[766] 0
x[767] -1.1308079672153139e-07
x[768] -3.5603461995072393e-07
x[769] 1.0000000227921277e+00
x[770] 1
x[771] 0
x[772] -9.5567608564847170e-08
x[773] 0
x[774] 0
x[775] 1
x[776] 1
x[777] 1
x[778] 0
x[779] 1
x[780] 1
x[781] 1
x[782] 1.0000000655369958e+00
x[783] 0
x[784] 0
x[785] 0
x[786] 0
x[787] 1
x[788] 0
x[789] 0
x[790] -3.0386627791107434e-08
x[791] 0
x[792] -3.9461535166298486e-07
x[793] 1
x[794] 0
x[795] 1.0000000433502165e+00
x[796] 2.2343052935642636e-08
x[797] 1
x[798] 1
x[799] 1
x[800] 0
x[801] 0
x[802] 0
x[803] 9.9999997750216041e-01
x[804] 0
x[805] 0
x[806] 1
x[807] 0
x[808] -9.7281669330502609e-08
x[809] 0
x[810] 1
x[811] 1
x[812] -1.1646010733556977e-07
x[813] 0
x[814] 4.4617656939570978e-08
x[815] 0
x[816] 0
x[817] -1.5933279727104246e-07
x[818] -9.8847315168717134e-08
x[819] 1
x[820] 0
x[821] 1
x[822] 1
x[823] 0
x[824] 0
x[825] 0
x[826] 1
x[827] -1.0112694287347475e-07
x[828] 1.0000001229511331e+00
x[829] 0
x[830] 1
x[831] 0
x[832] 0
x[833] 1
x[834] 1
x[835] 1
x[836] 1
x[837] 1.0000000610462245e+00
x[838] 0
x[839] 1
x[840] 9.9999997750216041e-01
x[841] 0
x[842] 0
x[843] 0
x[844] 0
x[845] 1.0000000508506086e+00
x[846] 1
x[847] 0
x[848] 1
x[849] -3.9114132995609251e-07
x[850] 0
x[851] 1
x[852] -3.2365993862804032e-07
x[853] 0
x[854] 1.0000002207050795e+00
x[855] 0
x[856] 0
x[857] -1.9791352820524168e-07
x[858] 1
x[859] -3.9125216790918323e-07
x[860] 1.0000002203691853e+00
x[861] 0
x[862] 0
x[863] 0
x[864] 0
x[865] 1
x[866] 1.0000001912505341e+00
x[867] 1.0000000610503916e+00
x[868] 1
x[869] 0
x[870] 1
x[871] 1
x[872] 1
x[873] 0
x[874] 0
x[875] -1.5595293880878682e-07
x[876] 1
x[877] 1.0000000609407276e+00
x[878] 0
x[879] 0
x[880] 1.0000001978844237e+00
x[881] 1
x[882] 1.0000000328792009e+00
x[883] 1
x[884] -1.9791352820524168e-07
x[885] 1.0000001978841759e+00
x[886] 0
x[887] 0
x[888] -1.0446027620680809e-07
x[889] -4.3627550841815066e-08
x[890] -1.9791352778671648e-07
x[891] 1
x[892] 0
x[893] 0
x[894] 1
x[895] -2.6306852984528369e-08
x[896] 1
x[897] 0
x[898] -1.9595267354487844e-07
x[899] 1
x[900] -1.9670182312809245e-07
x[901] 1
x[902] 1
x[903] 1
x[904] 1.0000001911912584e+00
x[905] 0
x[906] 1.0000001328373460e+00
x[907] 1
x[908] 0
x[909] 1
x[910] 0
x[911] 0
x[912] -1.9164506300139515e-08
x[913] 0
x[914] 1
x[915] 0
x[916] 0
x[917] 0
x[918] 0
x[919] 2.2413285476009185e-08
x[920] 0
x[921] 0
x[922] 0
x[923] -1.9670182335059877e-07
x[924] 0
x[925] 1
x[926] 0
x[927] 1
x[928] 1
x[929] 0
x[930] 1
x[931] 0
x[932] -1.3302594426001235e-07
x[933] 1
x[934] 1.0000001978673634e+00
x[935] 0
x[936] 1
x[937] 1
x[938] 0
x[939] 1
x[940] 1
x[941] 0
x[942] 1
x[943] 1
x[944] 1
x[945] 0
x[946] 0
x[947] 1
x[948] 1
x[949] 0
x[950] 1
x[951] 0
x[952] 0
x[953] 1
x[954] 1
x[955] 0
x[956] -2.5440492438220257e-08
x[957] 1
x[958] 0
x[959] 1
x[960] 0
x[961] 1
x[962] 0
x[963] 1
x[964] -3.3077218963839528e-08
x[965] 2.0586658050478252e-07
x[966] 0
x[967] 0
x[968] 0
x[969] 1
x[970] 1
x[971] -1.9458019489843176e-07
x[972] 0
x[973] 0
x[974] 0
x[975] 1
x[976] 0
x[977] 1
x[978] 0
x[979] 1
x[980] 0
x[981] -3.1265291489113167e-07
x[982] 1.0000000610498543e+00
x[983] 0
x[984] 0
x[985] 0
x[986] 0
x[987] 1
x[988] 1
x[989] 1
x[990] 1
x[991] -1.2966503877368452e-07
x[992] 1
x[993] 0
x[994] 1
x[995] -1.2198302795965504e-07
x[996] 1
x[997] -1.2177702467831253e-07
x[998] 9.9999997750216041e-01
x[999] 0
